43 122
8 13 14 30 39
3 10 23 30 37 41
8 10 20 29 32 37 38
1 10 25 41
11 22 26 29 31 34 37
17 19 28 29 31 38
11 14 26 32 33 36
11 16 24 27 35 40 41
0 2 12 22 32 38 42
11 20 30 32 41 42
1 2 3 24 25 31 33 38
4 6 7 9 17 21 23 24 32
8 16 26 30 34
0 25 32
0 6 16 21 24 42
19 22 31 35 36
7 12 14 26 30 31
5 11 18 36 42
17 20 29 36
5 15 21
2 9 18 21 32 34 36 38
11 14 19 20
4 8 15 42
1 11 25 28 35
7 10 11 14
3 10 13 23 41
4 6 12 16 28 31
7 29 41
5 23 26 31 35 40
2 4 5 18 27 36
0 1 9 12 16 31
4 5 10 15 16 26 28 30
2 6 8 9 11 13 20 34 40
6 10
4 12 20 32 35 38 41 42
7 15 23 28 34
6 15 17 18 20 29 39
1 2 4 41
2 5 8 10 20 34 39
0 36 38 42
7 28 32
1 3 7 9 25 27 34 37
8 9 14 17 22 34 39
